Problem:    antitrust
Rows:       21
Columns:    21 (10 integer, 10 binary)
Non-zeros:  141
Status:     INTEGER OPTIMAL
Objective:  d = 8400 (MINimum)

   No.   Row name        Activity     Lower bound   Upper bound
------ ------------    ------------- ------------- -------------
     1 fatturato_a[A]
                                   0            -0             = 
     2 fatturato_a[B]
                                   0            -0             = 
     3 fatturato_a[C]
                                   0            -0             = 
     4 fatturato_a[D]
                                   0            -0             = 
     5 fatturato_a[E]
                                   0            -0             = 
     6 fatturato_b[A]
                              159500        159500             = 
     7 fatturato_b[B]
                              169960        169960             = 
     8 fatturato_b[C]
                              185650        185650             = 
     9 fatturato_b[D]
                              566550        566550             = 
    10 fatturato_b[E]
                               46350         46350             = 
    11 differenza[A]
                                4000            -0               
    12 differenza[B]
                               16800            -0               
    13 differenza[C]
                               13350            -0               
    14 differenza[D]
                                9350            -0               
    15 differenza[E]
                                8290            -0               
    16 differenza2[A]
                               12800            -0               
    17 differenza2[B]
                                   0            -0               
    18 differenza2[C]
                                3450            -0               
    19 differenza2[D]
                                7450            -0               
    20 differenza2[E]
                                8510            -0               
    21 d                        8400                             

   No. Column name       Activity     Lower bound   Upper bound
------ ------------    ------------- ------------- -------------
     1 assign[1]    *              1             0             1 
     2 assign[2]    *              1             0             1 
     3 assign[3]    *              1             0             1 
     4 assign[4]    *              0             0             1 
     5 assign[5]    *              0             0             1 
     6 assign[6]    *              1             0             1 
     7 assign[7]    *              0             0             1 
     8 assign[8]    *              0             0             1 
     9 assign[9]    *              1             0             1 
    10 assign[10]   *              0             0             1 
    11 fattA[A]                77550             0               
    12 fattA[B]                89180             0               
    13 fattA[C]                95300             0               
    14 fattA[D]               283750             0               
    15 fattA[E]                23120             0               
    16 fattB[A]                81950             0               
    17 fattB[B]                80780             0               
    18 fattB[C]                90350             0               
    19 fattB[D]               282800             0               
    20 fattB[E]                23230             0               
    21 maxd                     8400                             

Integer feasibility conditions:

KKT.PE: max.abs.err = 0.00e+00 on row 0
        max.rel.err = 0.00e+00 on row 0
        High quality

KKT.PB: max.abs.err = 1.82e-12 on row 17
        max.rel.err = 1.82e-12 on row 17
        High quality

End of output
